decision_x1=[0,2];
decision_x2=[0,2];
decision_x3=[0,2];
decision_x4=[0,2];
decision_x5=[0,2];
decision_x6=[0,2];
decision_x7=[0,2];
decision_x8=[0,2];
decision_x9=[0,2];
decision_x10=[0,2];
decision_x11=[0,2];
decision_x12=[0,2];
random_y1=[0,2];
random_y2=[0,2];
random_y3=[0,2];
constraint_x3_x1=[
0,0,7.1|
0,1,5.7|
0,2,3.2|
1,0,9.2|
1,1,0.12|
1,2,4.5|
2,0,7.9|
2,1,0.59|
2,2,7.7|
];
constraint_x5_x1=[
0,0,6.8|
0,1,9.9|
0,2,5|
1,0,1.5|
1,1,2.6|
1,2,5.5|
2,0,9.6|
2,1,8.7|
2,2,7.7|
];
constraint_x5_x3=[
0,0,2|
0,1,9.2|
0,2,9.4|
1,0,1.4|
1,1,1.7|
1,2,0.66|
2,0,3.8|
2,1,4|
2,2,1.3|
];
constraint_x6_x4=[
0,0,9.8|
0,1,0.059|
0,2,9|
1,0,7.2|
1,1,4.5|
1,2,9|
2,0,8.5|
2,1,5.6|
2,2,2.5|
];
constraint_x6_x5=[
0,0,1.7|
0,1,8.6|
0,2,6.1|
1,0,2.9|
1,1,5.8|
1,2,2.5|
2,0,7.7|
2,1,0.7|
2,2,6.3|
];
constraint_x7_x1=[
0,0,9.3|
0,1,8.7|
0,2,0.59|
1,0,1.1|
1,1,6.2|
1,2,4.9|
2,0,1.6|
2,1,3.8|
2,2,5.6|
];
constraint_x7_x5=[
0,0,3.2|
0,1,4|
0,2,0.27|
1,0,8.8|
1,1,5.7|
1,2,5.6|
2,0,3.1|
2,1,3.9|
2,2,7.7|
];
constraint_x8_x2=[
0,0,4.8|
0,1,6|
0,2,9.9|
1,0,7.1|
1,1,4.6|
1,2,10|
2,0,5.4|
2,1,3.5|
2,2,8.7|
];
constraint_x8_x3=[
0,0,5.5|
0,1,4.9|
0,2,9.6|
1,0,3.6|
1,1,7.6|
1,2,7.6|
2,0,5.2|
2,1,9.8|
2,2,5.4|
];
constraint_x8_x4=[
0,0,0.27|
0,1,9.3|
0,2,7.3|
1,0,1.5|
1,1,6.5|
1,2,1.2|
2,0,9.7|
2,1,5.5|
2,2,4|
];
constraint_x9_x1=[
0,0,0.51|
0,1,0.3|
0,2,6.1|
1,0,1.9|
1,1,9.7|
1,2,5|
2,0,3.5|
2,1,2.7|
2,2,0.62|
];
constraint_x9_x2=[
0,0,5.1|
0,1,7|
0,2,2.4|
1,0,8.6|
1,1,5.1|
1,2,5|
2,0,1|
2,1,3.2|
2,2,4.8|
];
constraint_x9_x5=[
0,0,8.5|
0,1,0.012|
0,2,0.046|
1,0,7.5|
1,1,6.3|
1,2,6.4|
2,0,6.1|
2,1,5.8|
2,2,2.3|
];
constraint_x10_x1=[
0,0,5.1|
0,1,4.9|
0,2,3.6|
1,0,9.1|
1,1,9.7|
1,2,0.11|
2,0,0.053|
2,1,5.1|
2,2,6.5|
];
constraint_x10_x3=[
0,0,5.3|
0,1,8.3|
0,2,7|
1,0,2.2|
1,1,6.6|
1,2,3.6|
2,0,8.5|
2,1,3.6|
2,2,1.3|
];
constraint_x10_x4=[
0,0,0.72|
0,1,3.2|
0,2,4.5|
1,0,1.4|
1,1,0.29|
1,2,5.3|
2,0,8.2|
2,1,5.6|
2,2,4.6|
];
constraint_x10_x5=[
0,0,5.4|
0,1,6.5|
0,2,9.2|
1,0,9.2|
1,1,0.17|
1,2,2.9|
2,0,1.2|
2,1,2.1|
2,2,8.1|
];
constraint_x10_x6=[
0,0,8.2|
0,1,2.4|
0,2,6.5|
1,0,2.2|
1,1,1.9|
1,2,1.1|
2,0,4.4|
2,1,7|
2,2,2|
];
constraint_x10_x8=[
0,0,9.2|
0,1,0.15|
0,2,7.6|
1,0,1.5|
1,1,5.2|
1,2,8.3|
2,0,6.7|
2,1,5.4|
2,2,6.1|
];
constraint_x10_x9=[
0,0,4.3|
0,1,3.6|
0,2,1.5|
1,0,6.8|
1,1,3.7|
1,2,0.76|
2,0,7.9|
2,1,7.4|
2,2,2|
];
constraint_x11_x2=[
0,0,0.97|
0,1,9|
0,2,2.5|
1,0,2.1|
1,1,0.36|
1,2,7.8|
2,0,2.4|
2,1,3.4|
2,2,9.9|
];
constraint_x11_x3=[
0,0,9.8|
0,1,8|
0,2,4.7|
1,0,6.8|
1,1,6.3|
1,2,7.5|
2,0,3|
2,1,4.7|
2,2,6.3|
];
constraint_x11_x4=[
0,0,9.5|
0,1,0.07|
0,2,2.7|
1,0,6.2|
1,1,8.2|
1,2,3.4|
2,0,5.4|
2,1,8.1|
2,2,9.2|
];
constraint_x11_x6=[
0,0,1.6|
0,1,9.6|
0,2,3.5|
1,0,3.3|
1,1,7.3|
1,2,9.9|
2,0,4.6|
2,1,0.9|
2,2,9.4|
];
constraint_x11_x7=[
0,0,6.9|
0,1,7.1|
0,2,7.2|
1,0,3.4|
1,1,8.5|
1,2,7.7|
2,0,9.5|
2,1,4.9|
2,2,9.2|
];
constraint_x11_x8=[
0,0,6.7|
0,1,0.46|
0,2,4.8|
1,0,5.4|
1,1,3.3|
1,2,9.4|
2,0,3|
2,1,1.3|
2,2,0.51|
];
constraint_x11_x9=[
0,0,1.7|
0,1,6.7|
0,2,8|
1,0,3.1|
1,1,6|
1,2,5.2|
2,0,9.4|
2,1,0.4|
2,2,9.3|
];
constraint_x12_x1=[
0,0,5.6|
0,1,5.1|
0,2,8.8|
1,0,4.8|
1,1,0.15|
1,2,0.63|
2,0,4.3|
2,1,3|
2,2,6.3|
];
constraint_x12_x3=[
0,0,6.3|
0,1,3.1|
0,2,9.3|
1,0,4.7|
1,1,5|
1,2,0.39|
2,0,9.9|
2,1,3.1|
2,2,7.7|
];
constraint_x12_x5=[
0,0,9.9|
0,1,0.84|
0,2,8.3|
1,0,1.2|
1,1,2.7|
1,2,2.1|
2,0,6.1|
2,1,4.4|
2,2,9.7|
];
constraint_x12_x6=[
0,0,5.8|
0,1,5.5|
0,2,2.9|
1,0,2.6|
1,1,2.5|
1,2,7.5|
2,0,3.1|
2,1,7.5|
2,2,7.8|
];
constraint_x12_x10=[
0,0,8.8|
0,1,2|
0,2,1.7|
1,0,5.9|
1,1,4.7|
1,2,6|
2,0,7.7|
2,1,0.26|
2,2,8|
];
constraint_x12_x11=[
0,0,6.3|
0,1,9.4|
0,2,7.6|
1,0,1.1|
1,1,2.4|
1,2,4.6|
2,0,9.8|
2,1,6.9|
2,2,3.3|
];
constraint_x1_y1=[
0,0,4.4|
0,1,2|
0,2,3|
1,0,3.1|
1,1,6.9|
1,2,1.8|
2,0,7.4|
2,1,8.9|
2,2,4|
];
constraint_x2_y2=[
0,0,9.4|
0,1,3|
0,2,0.85|
1,0,8.6|
1,1,1.6|
1,2,9|
2,0,7.3|
2,1,5.6|
2,2,2.3|
];
constraint_x3_y3=[
0,0,0.0076|
0,1,4|
0,2,5.9|
1,0,2.9|
1,1,8.8|
1,2,7.5|
2,0,7.3|
2,1,0.73|
2,2,0.0031|
];
initial_distribution_y1=[0.12,0.17,0.71];
initial_distribution_y2=[0.44,0.36,0.2];
initial_distribution_y3=[0.34,0.35,0.3];
transition_y1=[
0.61,0.24,0.15|
0.13,0.79,0.082|
0.087,0.46,0.45|
];
transition_y2=[
0.27,0.43,0.3|
0.28,0.43,0.29|
0.48,0.12,0.41|
];
transition_y3=[
0.33,0.11,0.56|
0.36,0.4,0.24|
0.092,0.22,0.69|
];
